c not original file ! May have been modified for weighted vertex coloring problem (edges and vertices stay the same only weights may have been moved to an other file)
p edge 281 3554
e 1 2
e 1 3
e 1 4
e 1 5
e 1 6
e 1 7
e 1 8
e 1 9
e 1 10
e 1 11
e 1 12
e 1 13
e 1 14
e 1 15
e 1 16
e 1 31
e 1 79
e 1 108
e 1 119
e 1 135
e 1 147
e 1 159
e 1 172
e 1 187
e 1 201
e 1 214
e 1 231
e 1 244
e 1 255
e 1 269
e 2 3
e 2 4
e 2 5
e 2 6
e 2 7
e 2 8
e 2 9
e 2 10
e 2 11
e 2 12
e 2 13
e 2 14
e 2 15
e 2 17
e 2 52
e 2 66
e 2 94
e 2 120
e 2 136
e 2 160
e 2 173
e 2 202
e 2 215
e 2 232
e 2 245
e 3 4
e 3 5
e 3 6
e 3 7
e 3 8
e 3 9
e 3 10
e 3 11
e 3 12
e 3 13
e 3 14
e 3 15
e 3 40
e 3 67
e 3 95
e 3 109
e 3 121
e 3 148
e 3 216
e 3 233
e 3 246
e 3 256
e 4 5
e 4 6
e 4 7
e 4 8
e 4 9
e 4 10
e 4 11
e 4 12
e 4 13
e 4 14
e 4 15
e 4 19
e 4 41
e 4 54
e 4 69
e 4 81
e 4 97
e 4 110
e 4 138
e 4 162
e 4 189
e 4 204
e 4 218
e 4 234
e 4 258
e 4 270
e 5 6
e 5 7
e 5 8
e 5 9
e 5 10
e 5 11
e 5 12
e 5 13
e 5 14
e 5 15
e 5 20
e 5 32
e 5 55
e 5 70
e 5 82
e 5 111
e 5 123
e 5 150
e 5 175
e 5 190
e 5 205
e 5 219
e 5 248
e 5 271
e 6 7
e 6 8
e 6 9
e 6 10
e 6 11
e 6 12
e 6 13
e 6 14
e 6 15
e 6 21
e 6 33
e 6 42
e 6 71
e 6 83
e 6 98
e 6 112
e 6 124
e 6 139
e 6 163
e 6 191
e 6 206
e 6 220
e 6 259
e 7 8
e 7 9
e 7 10
e 7 11
e 7 12
e 7 13
e 7 14
e 7 15
e 7 22
e 7 34
e 7 43
e 7 56
e 7 72
e 7 99
e 7 125
e 7 164
e 7 176
e 7 192
e 7 207
e 7 221
e 7 235
e 7 249
e 7 260
e 7 272
e 8 9
e 8 10
e 8 11
e 8 12
e 8 13
e 8 14
e 8 15
e 8 23
e 8 45
e 8 58
e 8 73
e 8 84
e 8 113
e 8 178
e 8 193
e 8 223
e 8 236
e 8 261
e 8 274
e 9 10
e 9 11
e 9 12
e 9 13
e 9 14
e 9 15
e 9 24
e 9 46
e 9 59
e 9 74
e 9 85
e 9 101
e 9 141
e 9 151
e 9 166
e 9 194
e 9 224
e 9 262
e 9 275
e 10 11
e 10 12
e 10 13
e 10 14
e 10 15
e 10 35
e 10 60
e 10 87
e 10 103
e 10 128
e 10 143
e 10 153
e 10 180
e 10 196
e 10 226
e 10 264
e 11 12
e 11 13
e 11 14
e 11 15
e 11 61
e 11 75
e 11 88
e 11 114
e 11 129
e 11 154
e 11 167
e 11 181
e 11 197
e 11 238
e 11 265
e 11 277
e 12 13
e 12 14
e 12 15
e 12 27
e 12 37
e 12 48
e 12 63
e 12 89
e 12 104
e 12 115
e 12 169
e 12 183
e 12 210
e 12 240
e 12 251
e 12 278
e 13 14
e 13 15
e 13 28
e 13 49
e 13 77
e 13 90
e 13 105
e 13 145
e 13 156
e 13 184
e 13 211
e 13 241
e 13 279
e 14 15
e 14 64
e 14 106
e 14 116
e 14 132
e 14 157
e 14 171
e 14 199
e 14 212
e 14 229
e 14 243
e 14 253
e 14 266
e 14 281
e 15 38
e 15 51
e 15 92
e 15 107
e 15 117
e 15 133
e 15 200
e 15 213
e 15 230
e 15 254
e 15 267
e 16 17
e 16 18
e 16 19
e 16 20
e 16 21
e 16 22
e 16 23
e 16 24
e 16 25
e 16 26
e 16 27
e 16 28
e 16 29
e 16 30
e 16 31
e 16 79
e 16 108
e 16 119
e 16 135
e 16 147
e 16 159
e 16 172
e 16 187
e 16 201
e 16 214
e 16 231
e 16 244
e 16 255
e 16 269
e 17 18
e 17 19
e 17 20
e 17 21
e 17 22
e 17 23
e 17 24
e 17 25
e 17 26
e 17 27
e 17 28
e 17 29
e 17 30
e 17 52
e 17 66
e 17 94
e 17 120
e 17 136
e 17 160
e 17 173
e 17 202
e 17 215
e 17 232
e 17 245
e 18 19
e 18 20
e 18 21
e 18 22
e 18 23
e 18 24
e 18 25
e 18 26
e 18 27
e 18 28
e 18 29
e 18 30
e 18 53
e 18 68
e 18 80
e 18 96
e 18 122
e 18 137
e 18 149
e 18 161
e 18 174
e 18 188
e 18 203
e 18 217
e 18 247
e 18 257
e 19 20
e 19 21
e 19 22
e 19 23
e 19 24
e 19 25
e 19 26
e 19 27
e 19 28
e 19 29
e 19 30
e 19 41
e 19 54
e 19 69
e 19 81
e 19 97
e 19 110
e 19 138
e 19 162
e 19 189
e 19 204
e 19 218
e 19 234
e 19 258
e 19 270
e 20 21
e 20 22
e 20 23
e 20 24
e 20 25
e 20 26
e 20 27
e 20 28
e 20 29
e 20 30
e 20 32
e 20 55
e 20 70
e 20 82
e 20 111
e 20 123
e 20 150
e 20 175
e 20 190
e 20 205
e 20 219
e 20 248
e 20 271
e 21 22
e 21 23
e 21 24
e 21 25
e 21 26
e 21 27
e 21 28
e 21 29
e 21 30
e 21 33
e 21 42
e 21 71
e 21 83
e 21 98
e 21 112
e 21 124
e 21 139
e 21 163
e 21 191
e 21 206
e 21 220
e 21 259
e 22 23
e 22 24
e 22 25
e 22 26
e 22 27
e 22 28
e 22 29
e 22 30
e 22 34
e 22 43
e 22 56
e 22 72
e 22 99
e 22 125
e 22 164
e 22 176
e 22 192
e 22 207
e 22 221
e 22 235
e 22 249
e 22 260
e 22 272
e 23 24
e 23 25
e 23 26
e 23 27
e 23 28
e 23 29
e 23 30
e 23 45
e 23 58
e 23 73
e 23 84
e 23 113
e 23 178
e 23 193
e 23 223
e 23 236
e 23 261
e 23 274
e 24 25
e 24 26
e 24 27
e 24 28
e 24 29
e 24 30
e 24 46
e 24 59
e 24 74
e 24 85
e 24 101
e 24 141
e 24 151
e 24 166
e 24 194
e 24 224
e 24 262
e 24 275
e 25 26
e 25 27
e 25 28
e 25 29
e 25 30
e 25 47
e 25 86
e 25 102
e 25 127
e 25 142
e 25 152
e 25 179
e 25 195
e 25 209
e 25 225
e 25 237
e 25 263
e 25 276
e 26 27
e 26 28
e 26 29
e 26 30
e 26 36
e 26 62
e 26 76
e 26 130
e 26 144
e 26 155
e 26 168
e 26 182
e 26 227
e 26 239
e 26 250
e 27 28
e 27 29
e 27 30
e 27 37
e 27 48
e 27 63
e 27 89
e 27 104
e 27 115
e 27 169
e 27 183
e 27 210
e 27 240
e 27 251
e 27 278
e 28 29
e 28 30
e 28 49
e 28 77
e 28 90
e 28 105
e 28 145
e 28 156
e 28 184
e 28 211
e 28 241
e 28 279
e 29 30
e 29 50
e 29 78
e 29 91
e 29 131
e 29 170
e 29 185
e 29 198
e 29 228
e 29 242
e 29 252
e 29 280
e 30 39
e 30 65
e 30 93
e 30 118
e 30 134
e 30 146
e 30 158
e 30 186
e 30 268
e 31 32
e 31 33
e 31 34
e 31 35
e 31 36
e 31 37
e 31 38
e 31 39
e 31 79
e 31 108
e 31 119
e 31 135
e 31 147
e 31 159
e 31 172
e 31 187
e 31 201
e 31 214
e 31 231
e 31 244
e 31 255
e 31 269
e 32 33
e 32 34
e 32 35
e 32 36
e 32 37
e 32 38
e 32 39
e 32 55
e 32 70
e 32 82
e 32 111
e 32 123
e 32 150
e 32 175
e 32 190
e 32 205
e 32 219
e 32 248
e 32 271
e 33 34
e 33 35
e 33 36
e 33 37
e 33 38
e 33 39
e 33 42
e 33 71
e 33 83
e 33 98
e 33 112
e 33 124
e 33 139
e 33 163
e 33 191
e 33 206
e 33 220
e 33 259
e 34 35
e 34 36
e 34 37
e 34 38
e 34 39
e 34 43
e 34 56
e 34 72
e 34 99
e 34 125
e 34 164
e 34 176
e 34 192
e 34 207
e 34 221
e 34 235
e 34 249
e 34 260
e 34 272
e 35 36
e 35 37
e 35 38
e 35 39
e 35 60
e 35 87
e 35 103
e 35 128
e 35 143
e 35 153
e 35 180
e 35 196
e 35 226
e 35 264
e 36 37
e 36 38
e 36 39
e 36 62
e 36 76
e 36 130
e 36 144
e 36 155
e 36 168
e 36 182
e 36 227
e 36 239
e 36 250
e 37 38
e 37 39
e 37 48
e 37 63
e 37 89
e 37 104
e 37 115
e 37 169
e 37 183
e 37 210
e 37 240
e 37 251
e 37 278
e 38 39
e 38 51
e 38 92
e 38 107
e 38 117
e 38 133
e 38 200
e 38 213
e 38 230
e 38 254
e 38 267
e 39 65
e 39 93
e 39 118
e 39 134
e 39 146
e 39 158
e 39 186
e 39 268
e 40 41
e 40 42
e 40 43
e 40 44
e 40 45
e 40 46
e 40 47
e 40 48
e 40 49
e 40 50
e 40 51
e 40 67
e 40 95
e 40 109
e 40 121
e 40 148
e 40 216
e 40 233
e 40 246
e 40 256
e 41 42
e 41 43
e 41 44
e 41 45
e 41 46
e 41 47
e 41 48
e 41 49
e 41 50
e 41 51
e 41 54
e 41 69
e 41 81
e 41 97
e 41 110
e 41 138
e 41 162
e 41 189
e 41 204
e 41 218
e 41 234
e 41 258
e 41 270
e 42 43
e 42 44
e 42 45
e 42 46
e 42 47
e 42 48
e 42 49
e 42 50
e 42 51
e 42 71
e 42 83
e 42 98
e 42 112
e 42 124
e 42 139
e 42 163
e 42 191
e 42 206
e 42 220
e 42 259
e 43 44
e 43 45
e 43 46
e 43 47
e 43 48
e 43 49
e 43 50
e 43 51
e 43 56
e 43 72
e 43 99
e 43 125
e 43 164
e 43 176
e 43 192
e 43 207
e 43 221
e 43 235
e 43 249
e 43 260
e 43 272
e 44 45
e 44 46
e 44 47
e 44 48
e 44 49
e 44 50
e 44 51
e 44 57
e 44 100
e 44 126
e 44 140
e 44 165
e 44 177
e 44 208
e 44 222
e 44 273
e 45 46
e 45 47
e 45 48
e 45 49
e 45 50
e 45 51
e 45 58
e 45 73
e 45 84
e 45 113
e 45 178
e 45 193
e 45 223
e 45 236
e 45 261
e 45 274
e 46 47
e 46 48
e 46 49
e 46 50
e 46 51
e 46 59
e 46 74
e 46 85
e 46 101
e 46 141
e 46 151
e 46 166
e 46 194
e 46 224
e 46 262
e 46 275
e 47 48
e 47 49
e 47 50
e 47 51
e 47 86
e 47 102
e 47 127
e 47 142
e 47 152
e 47 179
e 47 195
e 47 209
e 47 225
e 47 237
e 47 263
e 47 276
e 48 49
e 48 50
e 48 51
e 48 63
e 48 89
e 48 104
e 48 115
e 48 169
e 48 183
e 48 210
e 48 240
e 48 251
e 48 278
e 49 50
e 49 51
e 49 77
e 49 90
e 49 105
e 49 145
e 49 156
e 49 184
e 49 211
e 49 241
e 49 279
e 50 51
e 50 78
e 50 91
e 50 131
e 50 170
e 50 185
e 50 198
e 50 228
e 50 242
e 50 252
e 50 280
e 51 92
e 51 107
e 51 117
e 51 133
e 51 200
e 51 213
e 51 230
e 51 254
e 51 267
e 52 53
e 52 54
e 52 55
e 52 56
e 52 57
e 52 58
e 52 59
e 52 60
e 52 61
e 52 62
e 52 63
e 52 64
e 52 65
e 52 66
e 52 94
e 52 120
e 52 136
e 52 160
e 52 173
e 52 202
e 52 215
e 52 232
e 52 245
e 53 54
e 53 55
e 53 56
e 53 57
e 53 58
e 53 59
e 53 60
e 53 61
e 53 62
e 53 63
e 53 64
e 53 65
e 53 68
e 53 80
e 53 96
e 53 122
e 53 137
e 53 149
e 53 161
e 53 174
e 53 188
e 53 203
e 53 217
e 53 247
e 53 257
e 54 55
e 54 56
e 54 57
e 54 58
e 54 59
e 54 60
e 54 61
e 54 62
e 54 63
e 54 64
e 54 65
e 54 69
e 54 81
e 54 97
e 54 110
e 54 138
e 54 162
e 54 189
e 54 204
e 54 218
e 54 234
e 54 258
e 54 270
e 55 56
e 55 57
e 55 58
e 55 59
e 55 60
e 55 61
e 55 62
e 55 63
e 55 64
e 55 65
e 55 70
e 55 82
e 55 111
e 55 123
e 55 150
e 55 175
e 55 190
e 55 205
e 55 219
e 55 248
e 55 271
e 56 57
e 56 58
e 56 59
e 56 60
e 56 61
e 56 62
e 56 63
e 56 64
e 56 65
e 56 72
e 56 99
e 56 125
e 56 164
e 56 176
e 56 192
e 56 207
e 56 221
e 56 235
e 56 249
e 56 260
e 56 272
e 57 58
e 57 59
e 57 60
e 57 61
e 57 62
e 57 63
e 57 64
e 57 65
e 57 100
e 57 126
e 57 140
e 57 165
e 57 177
e 57 208
e 57 222
e 57 273
e 58 59
e 58 60
e 58 61
e 58 62
e 58 63
e 58 64
e 58 65
e 58 73
e 58 84
e 58 113
e 58 178
e 58 193
e 58 223
e 58 236
e 58 261
e 58 274
e 59 60
e 59 61
e 59 62
e 59 63
e 59 64
e 59 65
e 59 74
e 59 85
e 59 101
e 59 141
e 59 151
e 59 166
e 59 194
e 59 224
e 59 262
e 59 275
e 60 61
e 60 62
e 60 63
e 60 64
e 60 65
e 60 87
e 60 103
e 60 128
e 60 143
e 60 153
e 60 180
e 60 196
e 60 226
e 60 264
e 61 62
e 61 63
e 61 64
e 61 65
e 61 75
e 61 88
e 61 114
e 61 129
e 61 154
e 61 167
e 61 181
e 61 197
e 61 238
e 61 265
e 61 277
e 62 63
e 62 64
e 62 65
e 62 76
e 62 130
e 62 144
e 62 155
e 62 168
e 62 182
e 62 227
e 62 239
e 62 250
e 63 64
e 63 65
e 63 89
e 63 104
e 63 115
e 63 169
e 63 183
e 63 210
e 63 240
e 63 251
e 63 278
e 64 65
e 64 106
e 64 116
e 64 132
e 64 157
e 64 171
e 64 199
e 64 212
e 64 229
e 64 243
e 64 253
e 64 266
e 64 281
e 65 93
e 65 118
e 65 134
e 65 146
e 65 158
e 65 186
e 65 268
e 66 67
e 66 68
e 66 69
e 66 70
e 66 71
e 66 72
e 66 73
e 66 74
e 66 75
e 66 76
e 66 77
e 66 78
e 66 94
e 66 120
e 66 136
e 66 160
e 66 173
e 66 202
e 66 215
e 66 232
e 66 245
e 67 68
e 67 69
e 67 70
e 67 71
e 67 72
e 67 73
e 67 74
e 67 75
e 67 76
e 67 77
e 67 78
e 67 95
e 67 109
e 67 121
e 67 148
e 67 216
e 67 233
e 67 246
e 67 256
e 68 69
e 68 70
e 68 71
e 68 72
e 68 73
e 68 74
e 68 75
e 68 76
e 68 77
e 68 78
e 68 80
e 68 96
e 68 122
e 68 137
e 68 149
e 68 161
e 68 174
e 68 188
e 68 203
e 68 217
e 68 247
e 68 257
e 69 70
e 69 71
e 69 72
e 69 73
e 69 74
e 69 75
e 69 76
e 69 77
e 69 78
e 69 81
e 69 97
e 69 110
e 69 138
e 69 162
e 69 189
e 69 204
e 69 218
e 69 234
e 69 258
e 69 270
e 70 71
e 70 72
e 70 73
e 70 74
e 70 75
e 70 76
e 70 77
e 70 78
e 70 82
e 70 111
e 70 123
e 70 150
e 70 175
e 70 190
e 70 205
e 70 219
e 70 248
e 70 271
e 71 72
e 71 73
e 71 74
e 71 75
e 71 76
e 71 77
e 71 78
e 71 83
e 71 98
e 71 112
e 71 124
e 71 139
e 71 163
e 71 191
e 71 206
e 71 220
e 71 259
e 72 73
e 72 74
e 72 75
e 72 76
e 72 77
e 72 78
e 72 99
e 72 125
e 72 164
e 72 176
e 72 192
e 72 207
e 72 221
e 72 235
e 72 249
e 72 260
e 72 272
e 73 74
e 73 75
e 73 76
e 73 77
e 73 78
e 73 84
e 73 113
e 73 178
e 73 193
e 73 223
e 73 236
e 73 261
e 73 274
e 74 75
e 74 76
e 74 77
e 74 78
e 74 85
e 74 101
e 74 141
e 74 151
e 74 166
e 74 194
e 74 224
e 74 262
e 74 275
e 75 76
e 75 77
e 75 78
e 75 88
e 75 114
e 75 129
e 75 154
e 75 167
e 75 181
e 75 197
e 75 238
e 75 265
e 75 277
e 76 77
e 76 78
e 76 130
e 76 144
e 76 155
e 76 168
e 76 182
e 76 227
e 76 239
e 76 250
e 77 78
e 77 90
e 77 105
e 77 145
e 77 156
e 77 184
e 77 211
e 77 241
e 77 279
e 78 91
e 78 131
e 78 170
e 78 185
e 78 198
e 78 228
e 78 242
e 78 252
e 78 280
e 79 80
e 79 81
e 79 82
e 79 83
e 79 84
e 79 85
e 79 86
e 79 87
e 79 88
e 79 89
e 79 90
e 79 91
e 79 92
e 79 93
e 79 108
e 79 119
e 79 135
e 79 147
e 79 159
e 79 172
e 79 187
e 79 201
e 79 214
e 79 231
e 79 244
e 79 255
e 79 269
e 80 81
e 80 82
e 80 83
e 80 84
e 80 85
e 80 86
e 80 87
e 80 88
e 80 89
e 80 90
e 80 91
e 80 92
e 80 93
e 80 96
e 80 122
e 80 137
e 80 149
e 80 161
e 80 174
e 80 188
e 80 203
e 80 217
e 80 247
e 80 257
e 81 82
e 81 83
e 81 84
e 81 85
e 81 86
e 81 87
e 81 88
e 81 89
e 81 90
e 81 91
e 81 92
e 81 93
e 81 97
e 81 110
e 81 138
e 81 162
e 81 189
e 81 204
e 81 218
e 81 234
e 81 258
e 81 270
e 82 83
e 82 84
e 82 85
e 82 86
e 82 87
e 82 88
e 82 89
e 82 90
e 82 91
e 82 92
e 82 93
e 82 111
e 82 123
e 82 150
e 82 175
e 82 190
e 82 205
e 82 219
e 82 248
e 82 271
e 83 84
e 83 85
e 83 86
e 83 87
e 83 88
e 83 89
e 83 90
e 83 91
e 83 92
e 83 93
e 83 98
e 83 112
e 83 124
e 83 139
e 83 163
e 83 191
e 83 206
e 83 220
e 83 259
e 84 85
e 84 86
e 84 87
e 84 88
e 84 89
e 84 90
e 84 91
e 84 92
e 84 93
e 84 113
e 84 178
e 84 193
e 84 223
e 84 236
e 84 261
e 84 274
e 85 86
e 85 87
e 85 88
e 85 89
e 85 90
e 85 91
e 85 92
e 85 93
e 85 101
e 85 141
e 85 151
e 85 166
e 85 194
e 85 224
e 85 262
e 85 275
e 86 87
e 86 88
e 86 89
e 86 90
e 86 91
e 86 92
e 86 93
e 86 102
e 86 127
e 86 142
e 86 152
e 86 179
e 86 195
e 86 209
e 86 225
e 86 237
e 86 263
e 86 276
e 87 88
e 87 89
e 87 90
e 87 91
e 87 92
e 87 93
e 87 103
e 87 128
e 87 143
e 87 153
e 87 180
e 87 196
e 87 226
e 87 264
e 88 89
e 88 90
e 88 91
e 88 92
e 88 93
e 88 114
e 88 129
e 88 154
e 88 167
e 88 181
e 88 197
e 88 238
e 88 265
e 88 277
e 89 90
e 89 91
e 89 92
e 89 93
e 89 104
e 89 115
e 89 169
e 89 183
e 89 210
e 89 240
e 89 251
e 89 278
e 90 91
e 90 92
e 90 93
e 90 105
e 90 145
e 90 156
e 90 184
e 90 211
e 90 241
e 90 279
e 91 92
e 91 93
e 91 131
e 91 170
e 91 185
e 91 198
e 91 228
e 91 242
e 91 252
e 91 280
e 92 93
e 92 107
e 92 117
e 92 133
e 92 200
e 92 213
e 92 230
e 92 254
e 92 267
e 93 118
e 93 134
e 93 146
e 93 158
e 93 186
e 93 268
e 94 95
e 94 96
e 94 97
e 94 98
e 94 99
e 94 100
e 94 101
e 94 102
e 94 103
e 94 104
e 94 105
e 94 106
e 94 107
e 94 120
e 94 136
e 94 160
e 94 173
e 94 202
e 94 215
e 94 232
e 94 245
e 95 96
e 95 97
e 95 98
e 95 99
e 95 100
e 95 101
e 95 102
e 95 103
e 95 104
e 95 105
e 95 106
e 95 107
e 95 109
e 95 121
e 95 148
e 95 216
e 95 233
e 95 246
e 95 256
e 96 97
e 96 98
e 96 99
e 96 100
e 96 101
e 96 102
e 96 103
e 96 104
e 96 105
e 96 106
e 96 107
e 96 122
e 96 137
e 96 149
e 96 161
e 96 174
e 96 188
e 96 203
e 96 217
e 96 247
e 96 257
e 97 98
e 97 99
e 97 100
e 97 101
e 97 102
e 97 103
e 97 104
e 97 105
e 97 106
e 97 107
e 97 110
e 97 138
e 97 162
e 97 189
e 97 204
e 97 218
e 97 234
e 97 258
e 97 270
e 98 99
e 98 100
e 98 101
e 98 102
e 98 103
e 98 104
e 98 105
e 98 106
e 98 107
e 98 112
e 98 124
e 98 139
e 98 163
e 98 191
e 98 206
e 98 220
e 98 259
e 99 100
e 99 101
e 99 102
e 99 103
e 99 104
e 99 105
e 99 106
e 99 107
e 99 125
e 99 164
e 99 176
e 99 192
e 99 207
e 99 221
e 99 235
e 99 249
e 99 260
e 99 272
e 100 101
e 100 102
e 100 103
e 100 104
e 100 105
e 100 106
e 100 107
e 100 126
e 100 140
e 100 165
e 100 177
e 100 208
e 100 222
e 100 273
e 101 102
e 101 103
e 101 104
e 101 105
e 101 106
e 101 107
e 101 141
e 101 151
e 101 166
e 101 194
e 101 224
e 101 262
e 101 275
e 102 103
e 102 104
e 102 105
e 102 106
e 102 107
e 102 127
e 102 142
e 102 152
e 102 179
e 102 195
e 102 209
e 102 225
e 102 237
e 102 263
e 102 276
e 103 104
e 103 105
e 103 106
e 103 107
e 103 128
e 103 143
e 103 153
e 103 180
e 103 196
e 103 226
e 103 264
e 104 105
e 104 106
e 104 107
e 104 115
e 104 169
e 104 183
e 104 210
e 104 240
e 104 251
e 104 278
e 105 106
e 105 107
e 105 145
e 105 156
e 105 184
e 105 211
e 105 241
e 105 279
e 106 107
e 106 116
e 106 132
e 106 157
e 106 171
e 106 199
e 106 212
e 106 229
e 106 243
e 106 253
e 106 266
e 106 281
e 107 117
e 107 133
e 107 200
e 107 213
e 107 230
e 107 254
e 107 267
e 108 109
e 108 110
e 108 111
e 108 112
e 108 113
e 108 114
e 108 115
e 108 116
e 108 117
e 108 118
e 108 119
e 108 135
e 108 147
e 108 159
e 108 172
e 108 187
e 108 201
e 108 214
e 108 231
e 108 244
e 108 255
e 108 269
e 109 110
e 109 111
e 109 112
e 109 113
e 109 114
e 109 115
e 109 116
e 109 117
e 109 118
e 109 121
e 109 148
e 109 216
e 109 233
e 109 246
e 109 256
e 110 111
e 110 112
e 110 113
e 110 114
e 110 115
e 110 116
e 110 117
e 110 118
e 110 138
e 110 162
e 110 189
e 110 204
e 110 218
e 110 234
e 110 258
e 110 270
e 111 112
e 111 113
e 111 114
e 111 115
e 111 116
e 111 117
e 111 118
e 111 123
e 111 150
e 111 175
e 111 190
e 111 205
e 111 219
e 111 248
e 111 271
e 112 113
e 112 114
e 112 115
e 112 116
e 112 117
e 112 118
e 112 124
e 112 139
e 112 163
e 112 191
e 112 206
e 112 220
e 112 259
e 113 114
e 113 115
e 113 116
e 113 117
e 113 118
e 113 178
e 113 193
e 113 223
e 113 236
e 113 261
e 113 274
e 114 115
e 114 116
e 114 117
e 114 118
e 114 129
e 114 154
e 114 167
e 114 181
e 114 197
e 114 238
e 114 265
e 114 277
e 115 116
e 115 117
e 115 118
e 115 169
e 115 183
e 115 210
e 115 240
e 115 251
e 115 278
e 116 117
e 116 118
e 116 132
e 116 157
e 116 171
e 116 199
e 116 212
e 116 229
e 116 243
e 116 253
e 116 266
e 116 281
e 117 118
e 117 133
e 117 200
e 117 213
e 117 230
e 117 254
e 117 267
e 118 134
e 118 146
e 118 158
e 118 186
e 118 268
e 119 120
e 119 121
e 119 122
e 119 123
e 119 124
e 119 125
e 119 126
e 119 127
e 119 128
e 119 129
e 119 130
e 119 131
e 119 132
e 119 133
e 119 134
e 119 135
e 119 147
e 119 159
e 119 172
e 119 187
e 119 201
e 119 214
e 119 231
e 119 244
e 119 255
e 119 269
e 120 121
e 120 122
e 120 123
e 120 124
e 120 125
e 120 126
e 120 127
e 120 128
e 120 129
e 120 130
e 120 131
e 120 132
e 120 133
e 120 134
e 120 136
e 120 160
e 120 173
e 120 202
e 120 215
e 120 232
e 120 245
e 121 122
e 121 123
e 121 124
e 121 125
e 121 126
e 121 127
e 121 128
e 121 129
e 121 130
e 121 131
e 121 132
e 121 133
e 121 134
e 121 148
e 121 216
e 121 233
e 121 246
e 121 256
e 122 123
e 122 124
e 122 125
e 122 126
e 122 127
e 122 128
e 122 129
e 122 130
e 122 131
e 122 132
e 122 133
e 122 134
e 122 137
e 122 149
e 122 161
e 122 174
e 122 188
e 122 203
e 122 217
e 122 247
e 122 257
e 123 124
e 123 125
e 123 126
e 123 127
e 123 128
e 123 129
e 123 130
e 123 131
e 123 132
e 123 133
e 123 134
e 123 150
e 123 175
e 123 190
e 123 205
e 123 219
e 123 248
e 123 271
e 124 125
e 124 126
e 124 127
e 124 128
e 124 129
e 124 130
e 124 131
e 124 132
e 124 133
e 124 134
e 124 139
e 124 163
e 124 191
e 124 206
e 124 220
e 124 259
e 125 126
e 125 127
e 125 128
e 125 129
e 125 130
e 125 131
e 125 132
e 125 133
e 125 134
e 125 164
e 125 176
e 125 192
e 125 207
e 125 221
e 125 235
e 125 249
e 125 260
e 125 272
e 126 127
e 126 128
e 126 129
e 126 130
e 126 131
e 126 132
e 126 133
e 126 134
e 126 140
e 126 165
e 126 177
e 126 208
e 126 222
e 126 273
e 127 128
e 127 129
e 127 130
e 127 131
e 127 132
e 127 133
e 127 134
e 127 142
e 127 152
e 127 179
e 127 195
e 127 209
e 127 225
e 127 237
e 127 263
e 127 276
e 128 129
e 128 130
e 128 131
e 128 132
e 128 133
e 128 134
e 128 143
e 128 153
e 128 180
e 128 196
e 128 226
e 128 264
e 129 130
e 129 131
e 129 132
e 129 133
e 129 134
e 129 154
e 129 167
e 129 181
e 129 197
e 129 238
e 129 265
e 129 277
e 130 131
e 130 132
e 130 133
e 130 134
e 130 144
e 130 155
e 130 168
e 130 182
e 130 227
e 130 239
e 130 250
e 131 132
e 131 133
e 131 134
e 131 170
e 131 185
e 131 198
e 131 228
e 131 242
e 131 252
e 131 280
e 132 133
e 132 134
e 132 157
e 132 171
e 132 199
e 132 212
e 132 229
e 132 243
e 132 253
e 132 266
e 132 281
e 133 134
e 133 200
e 133 213
e 133 230
e 133 254
e 133 267
e 134 146
e 134 158
e 134 186
e 134 268
e 135 136
e 135 137
e 135 138
e 135 139
e 135 140
e 135 141
e 135 142
e 135 143
e 135 144
e 135 145
e 135 146
e 135 147
e 135 159
e 135 172
e 135 187
e 135 201
e 135 214
e 135 231
e 135 244
e 135 255
e 135 269
e 136 137
e 136 138
e 136 139
e 136 140
e 136 141
e 136 142
e 136 143
e 136 144
e 136 145
e 136 146
e 136 160
e 136 173
e 136 202
e 136 215
e 136 232
e 136 245
e 137 138
e 137 139
e 137 140
e 137 141
e 137 142
e 137 143
e 137 144
e 137 145
e 137 146
e 137 149
e 137 161
e 137 174
e 137 188
e 137 203
e 137 217
e 137 247
e 137 257
e 138 139
e 138 140
e 138 141
e 138 142
e 138 143
e 138 144
e 138 145
e 138 146
e 138 162
e 138 189
e 138 204
e 138 218
e 138 234
e 138 258
e 138 270
e 139 140
e 139 141
e 139 142
e 139 143
e 139 144
e 139 145
e 139 146
e 139 163
e 139 191
e 139 206
e 139 220
e 139 259
e 140 141
e 140 142
e 140 143
e 140 144
e 140 145
e 140 146
e 140 165
e 140 177
e 140 208
e 140 222
e 140 273
e 141 142
e 141 143
e 141 144
e 141 145
e 141 146
e 141 151
e 141 166
e 141 194
e 141 224
e 141 262
e 141 275
e 142 143
e 142 144
e 142 145
e 142 146
e 142 152
e 142 179
e 142 195
e 142 209
e 142 225
e 142 237
e 142 263
e 142 276
e 143 144
e 143 145
e 143 146
e 143 153
e 143 180
e 143 196
e 143 226
e 143 264
e 144 145
e 144 146
e 144 155
e 144 168
e 144 182
e 144 227
e 144 239
e 144 250
e 145 146
e 145 156
e 145 184
e 145 211
e 145 241
e 145 279
e 146 158
e 146 186
e 146 268
e 147 148
e 147 149
e 147 150
e 147 151
e 147 152
e 147 153
e 147 154
e 147 155
e 147 156
e 147 157
e 147 158
e 147 159
e 147 172
e 147 187
e 147 201
e 147 214
e 147 231
e 147 244
e 147 255
e 147 269
e 148 149
e 148 150
e 148 151
e 148 152
e 148 153
e 148 154
e 148 155
e 148 156
e 148 157
e 148 158
e 148 216
e 148 233
e 148 246
e 148 256
e 149 150
e 149 151
e 149 152
e 149 153
e 149 154
e 149 155
e 149 156
e 149 157
e 149 158
e 149 161
e 149 174
e 149 188
e 149 203
e 149 217
e 149 247
e 149 257
e 150 151
e 150 152
e 150 153
e 150 154
e 150 155
e 150 156
e 150 157
e 150 158
e 150 175
e 150 190
e 150 205
e 150 219
e 150 248
e 150 271
e 151 152
e 151 153
e 151 154
e 151 155
e 151 156
e 151 157
e 151 158
e 151 166
e 151 194
e 151 224
e 151 262
e 151 275
e 152 153
e 152 154
e 152 155
e 152 156
e 152 157
e 152 158
e 152 179
e 152 195
e 152 209
e 152 225
e 152 237
e 152 263
e 152 276
e 153 154
e 153 155
e 153 156
e 153 157
e 153 158
e 153 180
e 153 196
e 153 226
e 153 264
e 154 155
e 154 156
e 154 157
e 154 158
e 154 167
e 154 181
e 154 197
e 154 238
e 154 265
e 154 277
e 155 156
e 155 157
e 155 158
e 155 168
e 155 182
e 155 227
e 155 239
e 155 250
e 156 157
e 156 158
e 156 184
e 156 211
e 156 241
e 156 279
e 157 158
e 157 171
e 157 199
e 157 212
e 157 229
e 157 243
e 157 253
e 157 266
e 157 281
e 158 186
e 158 268
e 159 160
e 159 161
e 159 162
e 159 163
e 159 164
e 159 165
e 159 166
e 159 167
e 159 168
e 159 169
e 159 170
e 159 171
e 159 172
e 159 187
e 159 201
e 159 214
e 159 231
e 159 244
e 159 255
e 159 269
e 160 161
e 160 162
e 160 163
e 160 164
e 160 165
e 160 166
e 160 167
e 160 168
e 160 169
e 160 170
e 160 171
e 160 173
e 160 202
e 160 215
e 160 232
e 160 245
e 161 162
e 161 163
e 161 164
e 161 165
e 161 166
e 161 167
e 161 168
e 161 169
e 161 170
e 161 171
e 161 174
e 161 188
e 161 203
e 161 217
e 161 247
e 161 257
e 162 163
e 162 164
e 162 165
e 162 166
e 162 167
e 162 168
e 162 169
e 162 170
e 162 171
e 162 189
e 162 204
e 162 218
e 162 234
e 162 258
e 162 270
e 163 164
e 163 165
e 163 166
e 163 167
e 163 168
e 163 169
e 163 170
e 163 171
e 163 191
e 163 206
e 163 220
e 163 259
e 164 165
e 164 166
e 164 167
e 164 168
e 164 169
e 164 170
e 164 171
e 164 176
e 164 192
e 164 207
e 164 221
e 164 235
e 164 249
e 164 260
e 164 272
e 165 166
e 165 167
e 165 168
e 165 169
e 165 170
e 165 171
e 165 177
e 165 208
e 165 222
e 165 273
e 166 167
e 166 168
e 166 169
e 166 170
e 166 171
e 166 194
e 166 224
e 166 262
e 166 275
e 167 168
e 167 169
e 167 170
e 167 171
e 167 181
e 167 197
e 167 238
e 167 265
e 167 277
e 168 169
e 168 170
e 168 171
e 168 182
e 168 227
e 168 239
e 168 250
e 169 170
e 169 171
e 169 183
e 169 210
e 169 240
e 169 251
e 169 278
e 170 171
e 170 185
e 170 198
e 170 228
e 170 242
e 170 252
e 170 280
e 171 199
e 171 212
e 171 229
e 171 243
e 171 253
e 171 266
e 171 281
e 172 173
e 172 174
e 172 175
e 172 176
e 172 177
e 172 178
e 172 179
e 172 180
e 172 181
e 172 182
e 172 183
e 172 184
e 172 185
e 172 186
e 172 187
e 172 201
e 172 214
e 172 231
e 172 244
e 172 255
e 172 269
e 173 174
e 173 175
e 173 176
e 173 177
e 173 178
e 173 179
e 173 180
e 173 181
e 173 182
e 173 183
e 173 184
e 173 185
e 173 186
e 173 202
e 173 215
e 173 232
e 173 245
e 174 175
e 174 176
e 174 177
e 174 178
e 174 179
e 174 180
e 174 181
e 174 182
e 174 183
e 174 184
e 174 185
e 174 186
e 174 188
e 174 203
e 174 217
e 174 247
e 174 257
e 175 176
e 175 177
e 175 178
e 175 179
e 175 180
e 175 181
e 175 182
e 175 183
e 175 184
e 175 185
e 175 186
e 175 190
e 175 205
e 175 219
e 175 248
e 175 271
e 176 177
e 176 178
e 176 179
e 176 180
e 176 181
e 176 182
e 176 183
e 176 184
e 176 185
e 176 186
e 176 192
e 176 207
e 176 221
e 176 235
e 176 249
e 176 260
e 176 272
e 177 178
e 177 179
e 177 180
e 177 181
e 177 182
e 177 183
e 177 184
e 177 185
e 177 186
e 177 208
e 177 222
e 177 273
e 178 179
e 178 180
e 178 181
e 178 182
e 178 183
e 178 184
e 178 185
e 178 186
e 178 193
e 178 223
e 178 236
e 178 261
e 178 274
e 179 180
e 179 181
e 179 182
e 179 183
e 179 184
e 179 185
e 179 186
e 179 195
e 179 209
e 179 225
e 179 237
e 179 263
e 179 276
e 180 181
e 180 182
e 180 183
e 180 184
e 180 185
e 180 186
e 180 196
e 180 226
e 180 264
e 181 182
e 181 183
e 181 184
e 181 185
e 181 186
e 181 197
e 181 238
e 181 265
e 181 277
e 182 183
e 182 184
e 182 185
e 182 186
e 182 227
e 182 239
e 182 250
e 183 184
e 183 185
e 183 186
e 183 210
e 183 240
e 183 251
e 183 278
e 184 185
e 184 186
e 184 211
e 184 241
e 184 279
e 185 186
e 185 198
e 185 228
e 185 242
e 185 252
e 185 280
e 186 268
e 187 188
e 187 189
e 187 190
e 187 191
e 187 192
e 187 193
e 187 194
e 187 195
e 187 196
e 187 197
e 187 198
e 187 199
e 187 200
e 187 201
e 187 214
e 187 231
e 187 244
e 187 255
e 187 269
e 188 189
e 188 190
e 188 191
e 188 192
e 188 193
e 188 194
e 188 195
e 188 196
e 188 197
e 188 198
e 188 199
e 188 200
e 188 203
e 188 217
e 188 247
e 188 257
e 189 190
e 189 191
e 189 192
e 189 193
e 189 194
e 189 195
e 189 196
e 189 197
e 189 198
e 189 199
e 189 200
e 189 204
e 189 218
e 189 234
e 189 258
e 189 270
e 190 191
e 190 192
e 190 193
e 190 194
e 190 195
e 190 196
e 190 197
e 190 198
e 190 199
e 190 200
e 190 205
e 190 219
e 190 248
e 190 271
e 191 192
e 191 193
e 191 194
e 191 195
e 191 196
e 191 197
e 191 198
e 191 199
e 191 200
e 191 206
e 191 220
e 191 259
e 192 193
e 192 194
e 192 195
e 192 196
e 192 197
e 192 198
e 192 199
e 192 200
e 192 207
e 192 221
e 192 235
e 192 249
e 192 260
e 192 272
e 193 194
e 193 195
e 193 196
e 193 197
e 193 198
e 193 199
e 193 200
e 193 223
e 193 236
e 193 261
e 193 274
e 194 195
e 194 196
e 194 197
e 194 198
e 194 199
e 194 200
e 194 224
e 194 262
e 194 275
e 195 196
e 195 197
e 195 198
e 195 199
e 195 200
e 195 209
e 195 225
e 195 237
e 195 263
e 195 276
e 196 197
e 196 198
e 196 199
e 196 200
e 196 226
e 196 264
e 197 198
e 197 199
e 197 200
e 197 238
e 197 265
e 197 277
e 198 199
e 198 200
e 198 228
e 198 242
e 198 252
e 198 280
e 199 200
e 199 212
e 199 229
e 199 243
e 199 253
e 199 266
e 199 281
e 200 213
e 200 230
e 200 254
e 200 267
e 201 202
e 201 203
e 201 204
e 201 205
e 201 206
e 201 207
e 201 208
e 201 209
e 201 210
e 201 211
e 201 212
e 201 213
e 201 214
e 201 231
e 201 244
e 201 255
e 201 269
e 202 203
e 202 204
e 202 205
e 202 206
e 202 207
e 202 208
e 202 209
e 202 210
e 202 211
e 202 212
e 202 213
e 202 215
e 202 232
e 202 245
e 203 204
e 203 205
e 203 206
e 203 207
e 203 208
e 203 209
e 203 210
e 203 211
e 203 212
e 203 213
e 203 217
e 203 247
e 203 257
e 204 205
e 204 206
e 204 207
e 204 208
e 204 209
e 204 210
e 204 211
e 204 212
e 204 213
e 204 218
e 204 234
e 204 258
e 204 270
e 205 206
e 205 207
e 205 208
e 205 209
e 205 210
e 205 211
e 205 212
e 205 213
e 205 219
e 205 248
e 205 271
e 206 207
e 206 208
e 206 209
e 206 210
e 206 211
e 206 212
e 206 213
e 206 220
e 206 259
e 207 208
e 207 209
e 207 210
e 207 211
e 207 212
e 207 213
e 207 221
e 207 235
e 207 249
e 207 260
e 207 272
e 208 209
e 208 210
e 208 211
e 208 212
e 208 213
e 208 222
e 208 273
e 209 210
e 209 211
e 209 212
e 209 213
e 209 225
e 209 237
e 209 263
e 209 276
e 210 211
e 210 212
e 210 213
e 210 240
e 210 251
e 210 278
e 211 212
e 211 213
e 211 241
e 211 279
e 212 213
e 212 229
e 212 243
e 212 253
e 212 266
e 212 281
e 213 230
e 213 254
e 213 267
e 214 215
e 214 216
e 214 217
e 214 218
e 214 219
e 214 220
e 214 221
e 214 222
e 214 223
e 214 224
e 214 225
e 214 226
e 214 227
e 214 228
e 214 229
e 214 230
e 214 231
e 214 244
e 214 255
e 214 269
e 215 216
e 215 217
e 215 218
e 215 219
e 215 220
e 215 221
e 215 222
e 215 223
e 215 224
e 215 225
e 215 226
e 215 227
e 215 228
e 215 229
e 215 230
e 215 232
e 215 245
e 216 217
e 216 218
e 216 219
e 216 220
e 216 221
e 216 222
e 216 223
e 216 224
e 216 225
e 216 226
e 216 227
e 216 228
e 216 229
e 216 230
e 216 233
e 216 246
e 216 256
e 217 218
e 217 219
e 217 220
e 217 221
e 217 222
e 217 223
e 217 224
e 217 225
e 217 226
e 217 227
e 217 228
e 217 229
e 217 230
e 217 247
e 217 257
e 218 219
e 218 220
e 218 221
e 218 222
e 218 223
e 218 224
e 218 225
e 218 226
e 218 227
e 218 228
e 218 229
e 218 230
e 218 234
e 218 258
e 218 270
e 219 220
e 219 221
e 219 222
e 219 223
e 219 224
e 219 225
e 219 226
e 219 227
e 219 228
e 219 229
e 219 230
e 219 248
e 219 271
e 220 221
e 220 222
e 220 223
e 220 224
e 220 225
e 220 226
e 220 227
e 220 228
e 220 229
e 220 230
e 220 259
e 221 222
e 221 223
e 221 224
e 221 225
e 221 226
e 221 227
e 221 228
e 221 229
e 221 230
e 221 235
e 221 249
e 221 260
e 221 272
e 222 223
e 222 224
e 222 225
e 222 226
e 222 227
e 222 228
e 222 229
e 222 230
e 222 273
e 223 224
e 223 225
e 223 226
e 223 227
e 223 228
e 223 229
e 223 230
e 223 236
e 223 261
e 223 274
e 224 225
e 224 226
e 224 227
e 224 228
e 224 229
e 224 230
e 224 262
e 224 275
e 225 226
e 225 227
e 225 228
e 225 229
e 225 230
e 225 237
e 225 263
e 225 276
e 226 227
e 226 228
e 226 229
e 226 230
e 226 264
e 227 228
e 227 229
e 227 230
e 227 239
e 227 250
e 228 229
e 228 230
e 228 242
e 228 252
e 228 280
e 229 230
e 229 243
e 229 253
e 229 266
e 229 281
e 230 254
e 230 267
e 231 232
e 231 233
e 231 234
e 231 235
e 231 236
e 231 237
e 231 238
e 231 239
e 231 240
e 231 241
e 231 242
e 231 243
e 231 244
e 231 255
e 231 269
e 232 233
e 232 234
e 232 235
e 232 236
e 232 237
e 232 238
e 232 239
e 232 240
e 232 241
e 232 242
e 232 243
e 232 245
e 233 234
e 233 235
e 233 236
e 233 237
e 233 238
e 233 239
e 233 240
e 233 241
e 233 242
e 233 243
e 233 246
e 233 256
e 234 235
e 234 236
e 234 237
e 234 238
e 234 239
e 234 240
e 234 241
e 234 242
e 234 243
e 234 258
e 234 270
e 235 236
e 235 237
e 235 238
e 235 239
e 235 240
e 235 241
e 235 242
e 235 243
e 235 249
e 235 260
e 235 272
e 236 237
e 236 238
e 236 239
e 236 240
e 236 241
e 236 242
e 236 243
e 236 261
e 236 274
e 237 238
e 237 239
e 237 240
e 237 241
e 237 242
e 237 243
e 237 263
e 237 276
e 238 239
e 238 240
e 238 241
e 238 242
e 238 243
e 238 265
e 238 277
e 239 240
e 239 241
e 239 242
e 239 243
e 239 250
e 240 241
e 240 242
e 240 243
e 240 251
e 240 278
e 241 242
e 241 243
e 241 279
e 242 243
e 242 252
e 242 280
e 243 253
e 243 266
e 243 281
e 244 245
e 244 246
e 244 247
e 244 248
e 244 249
e 244 250
e 244 251
e 244 252
e 244 253
e 244 254
e 244 255
e 244 269
e 245 246
e 245 247
e 245 248
e 245 249
e 245 250
e 245 251
e 245 252
e 245 253
e 245 254
e 246 247
e 246 248
e 246 249
e 246 250
e 246 251
e 246 252
e 246 253
e 246 254
e 246 256
e 247 248
e 247 249
e 247 250
e 247 251
e 247 252
e 247 253
e 247 254
e 247 257
e 248 249
e 248 250
e 248 251
e 248 252
e 248 253
e 248 254
e 248 271
e 249 250
e 249 251
e 249 252
e 249 253
e 249 254
e 249 260
e 249 272
e 250 251
e 250 252
e 250 253
e 250 254
e 251 252
e 251 253
e 251 254
e 251 278
e 252 253
e 252 254
e 252 280
e 253 254
e 253 266
e 253 281
e 254 267
e 255 256
e 255 257
e 255 258
e 255 259
e 255 260
e 255 261
e 255 262
e 255 263
e 255 264
e 255 265
e 255 266
e 255 267
e 255 268
e 255 269
e 256 257
e 256 258
e 256 259
e 256 260
e 256 261
e 256 262
e 256 263
e 256 264
e 256 265
e 256 266
e 256 267
e 256 268
e 257 258
e 257 259
e 257 260
e 257 261
e 257 262
e 257 263
e 257 264
e 257 265
e 257 266
e 257 267
e 257 268
e 258 259
e 258 260
e 258 261
e 258 262
e 258 263
e 258 264
e 258 265
e 258 266
e 258 267
e 258 268
e 258 270
e 259 260
e 259 261
e 259 262
e 259 263
e 259 264
e 259 265
e 259 266
e 259 267
e 259 268
e 260 261
e 260 262
e 260 263
e 260 264
e 260 265
e 260 266
e 260 267
e 260 268
e 260 272
e 261 262
e 261 263
e 261 264
e 261 265
e 261 266
e 261 267
e 261 268
e 261 274
e 262 263
e 262 264
e 262 265
e 262 266
e 262 267
e 262 268
e 262 275
e 263 264
e 263 265
e 263 266
e 263 267
e 263 268
e 263 276
e 264 265
e 264 266
e 264 267
e 264 268
e 265 266
e 265 267
e 265 268
e 265 277
e 266 267
e 266 268
e 266 281
e 267 268
e 269 270
e 269 271
e 269 272
e 269 273
e 269 274
e 269 275
e 269 276
e 269 277
e 269 278
e 269 279
e 269 280
e 269 281
e 270 271
e 270 272
e 270 273
e 270 274
e 270 275
e 270 276
e 270 277
e 270 278
e 270 279
e 270 280
e 270 281
e 271 272
e 271 273
e 271 274
e 271 275
e 271 276
e 271 277
e 271 278
e 271 279
e 271 280
e 271 281
e 272 273
e 272 274
e 272 275
e 272 276
e 272 277
e 272 278
e 272 279
e 272 280
e 272 281
e 273 274
e 273 275
e 273 276
e 273 277
e 273 278
e 273 279
e 273 280
e 273 281
e 274 275
e 274 276
e 274 277
e 274 278
e 274 279
e 274 280
e 274 281
e 275 276
e 275 277
e 275 278
e 275 279
e 275 280
e 275 281
e 276 277
e 276 278
e 276 279
e 276 280
e 276 281
e 277 278
e 277 279
e 277 280
e 277 281
e 278 279
e 278 280
e 278 281
e 279 280
e 279 281
e 280 281
